Optimal - objective value -103.00000000
      0 sv_addi0                     0                      -1
      1 sv_andi0                    12                      -1
      2 sv_br1                       0                      -1
      3 sv_br2                       0                      -1
      4 sv_br3                       0                      -1
      5 sv_cmpf0                    11                      -1
      6 sv_cmpi0                     1                      -1
      7 sv_cond_br1                 12                      -1
      8 sv_cond_br2                 12                      -1
      9 sv_cond_br3                 12                      -1
     10 sv_cond_br4                 12                      -1
     11 sv_cond_br5                 12                      -1
     12 sv_constant2                 0                      -1
     13 sv_constant3                 0                      -1
     14 sv_constant4                 0                      -1
     15 sv_constant8                 0                      -1
     16 sv_constant9                 0                      -1
     17 sv_extui0                    0                      -1
     18 sv_extui1                    0                      -1
     19 sv_index_cast0               0                      -1
     20 sv_index_cast1               0                      -1
     21 sv_load0                     0                      -1
     22 sv_load1                     0                      -1
     23 sv_mulf0                     1                      -1
     24 sv_mulf1                     6                      -1
     25 sv_phi0                      0                      -1
     26 sv_phi1                      0                      -1
     27 sv_phi2                      0                      -1
     28 sv_return1                  12                      -1
     29 sv_start0                    0                      -1
